22      4       
18      15      18      18      
0       0       0       0       0       4       2       3       4       5       
9       0       0       3       7       1       6       
7       6       0       6       10      1       7       
9       10      6       9       3       1       9       
1       9       3       7       2       1       11      
4       0       0       7       2       1       10      
1       0       6       0       5       1       8       
9       10      3       8       0       1       14      
5       1       7       2       10      1       18      
1       1       9       5       6       1       12      
5       10      8       4       5       1       21      
4       0       8       9       1       1       13      
5       0       6       9       0       1       15      
10      7       0       0       3       1       16      
7       9       9       5       9       1       20      
10      3       7       6       6       1       17      
1       7       9       1       8       1       19      
7       1       3       1       0       1       22      
6       9       0       10      0       1       22      
3       0       7       2       3       1       22      
8       5       0       0       0       1       22      
0       0       0       0       0       0       
